/* Função Objetivo */
min: 160CL1+231CM1+116CP1+10PL1+10PM1+10PP1 + AC1 + 3AP1 +
/*Fevereiro*/
210CL2+199CM2+116CP2+10PL2+10PM2+10PP2 + AC2 + 3AP2 +
/*Março*/
160CL3+187CM3+124CP3+10PL3+10PM3+10PP3 + AC3 + 3AP3 +
/*Abril*/
210CL4+198CM4+120CP4+10PL4+10PM4+10PP4 + AC4 + 3AP4 +
/*Maio*/
160CL5+210CM5+132CP5+10PL5+10PM5+10PP5 + AC5 + 3AP5 +
/*Junho*/
210CL6+208CM6+128CP6+10PL6+10PM6+10PP6 + AC6 + 3AP6 +
/*Julho*/
160CL7+211CM7+136CP7+10PL7+10PM7+10PP7 + AC7 + 3AP7 +
/*Agosto*/
210CL8+220CM8+116CP8+12PL8+12PM8+12PP8 + AC8 + 3AP8 +
/*Setembro*/
160CL9+217CM9+120CP9+10PL9+10PM9+10PP9 + AC9 + 3AP9 +
/*Outubro*/
210CL10+216CM10+108CP10+10PL10+10PM10+10PP10 + AC10 + 3AP10 +
/*Novembro*/
160CL11+221CM11+100CP11+10PL11+10PM11+10PP11 + AC11 + 3AP11 +
/*Dezembro*/
210CL12+217CM12+116CP12+10PL12+10PM12+10PP12 + AC12 + 3AP12;


/* RESTRIÇÕES */

/* Janeiro */
PL1+20>=9;
PM1+10>=5;
PP1+10>=4;
CL1+16>=PL1;
CM1+8>=PM1;
CP1+6>=PP1;
PL1+PM1+PP1<=30;
30+CL1-PL1+CM1-PM1+CP1-PP1=AC1;
40+PL1+PM1+PP1=AP1 +18;
AC1>=0;AC1<=30;
AP1>=0;AP1<=40;

/* Fevereiro */

PL2+PL1+20>=18;
PM2+PM1+10>=10;
PP2+PP1+10>=8;
CL2+CL1+16>=PL2+PL1;
CM2+CM1+8>=PM2+PM1;
CP2+CP1+6>=PP2+PP1;
PL2+PM2+PP2<=30;
30+CL1-PL1+CM1-PM1+CP1-PP1 + CL2-PL2+CM2-PM2+CP2-PP2=AC2;
40+PL1+PM1+PP1 + PL2+PM2+PP2=AP2 +18+18;
AC2>=0;AC2<=30;
AP2>=0;AP2<=40;

/* Março */

PL3+PL2+PL1+20>=18+9;
PM3+PM2+PM1+10>=10+5;
PP3+PP2+PP1+10>=8+4;
CL3+CL2+CL1+16>=PL3+PL2+PL1;
CM3+CM2+CM1+8>=PM3+PM2+PM1;
CP3+CP2+CP1+6>=PP3+PP2+PP1;
PL3+PM3+PP3<=30;
30+CL1-PL1+CM1-PM1+CP1-PP1 + CL2-PL2+CM2-PM2+CP2-PP2 + CL3-PL3+CM3-PM3+CP3-PP3=AC3;
40+PL1+PM1+PP1 + PL2+PM2+PP2 + PL3+PM3+PP3=AP3 +18+18+18;
AC3>=0;AC3<=30;
AP3>=0;AP3<=40;

/* Abril */

PL4+PL3+PL2+PL1+20>=18+9+12;
PM4+PM3+PM2+PM1+10>=10+5+6;
PP4+PP3+PP2+PP1+10>=8+4+5;
CL4+CL3+CL2+CL1+16>=PL4+PL3+PL2+PL1;
CM4+CM3+CM2+CM1+8>=PM4+PM3+PM2+PM1;
CP4+CP3+CP2+CP1+6>=PP4+PP3+PP2+PP1;
PL4+PM4+PP4<=30;
30+CL1-PL1+CM1-PM1+CP1-PP1 + CL2-PL2+CM2-PM2+CP2-PP2 + CL3-PL3+CM3-PM3+CP3-PP3 + CL4-PL4+CM4-PM4+CP4-PP4=AC4;
40+PL1+PM1+PP1 + PL2+PM2+PP2 + PL3+PM3+PP3 + PL4+PM4+PP4=AP4 +18+18+18+23;
AC4>=0;AC4<=30;
AP4>=0;AP4<=40;

/* Maio */

PL5+PL4+PL3+PL2+PL1+20>=9+9+9+12+16;
PM5+PM4+PM3+PM2+PM1+10>=5+5+5+6+8;
PP5+PP4+PP3+PP2+PP1+10>=4+4+4+5+6;
CL5+CL4+CL3+CL2+CL1+16>=PL5+PL4+PL3+PL2+PL1;
CM5+CM4+CM3+CM2+CM1+8>=PM5+PM4+PM3+PM2+PM1;
CP5+CP4+CP3+CP2+CP1+6>=PP5+PP4+PP3+PP2+PP1;
PL5+PM5+PP5<=30;
30+CL1-PL1+CM1-PM1+CP1-PP1 + CL2-PL2+CM2-PM2+CP2-PP2 + CL3-PL3+CM3-PM3+CP3-PP3 + CL4-PL4+CM4-PM4+CP4-PP4 + CL5-PL5+CM5-PM5+CP5-PP5=AC5;
40+PL1+PM1+PP1 + PL2+PM2+PP2 + PL3+PM3+PP3 + PL4+PM4+PP4 + PL5+PM5+PP5=AP5 +18+18+18+23+30;
AC5>=0;AC5<=30;
AP5>=0;AP5<=40;

/* Junho */

PL6+PL5+PL4+PL3+PL2+PL1+20>=9+9+9+12+16+17;
PM6+PM5+PM4+PM3+PM2+PM1+10>=5+5+5+6+8+9;
PP6+PP5+PP4+PP3+PP2+PP1+10>=4+4+4+5+6+7;
CL6+CL5+CL4+CL3+CL2+CL1+16>=PL6+PL5+PL4+PL3+PL2+PL1;
CM6+CM5+CM4+CM3+CM2+CM1+8>=PM6+PM5+PM4+PM3+PM2+PM1;
CP6+CP5+CP4+CP3+CP2+CP1+6>=PP6+PP5+PP4+PP3+PP2+PP1;
PL6+PM6+PP6<=30;
30+CL1-PL1+CM1-PM1+CP1-PP1 + CL2-PL2+CM2-PM2+CP2-PP2 + CL3-PL3+CM3-PM3+CP3-PP3 + CL4-PL4+CM4-PM4+CP4-PP4 + CL5-PL5+CM5-PM5+CP5-PP5 + CL6-PL6+CM6-PM6+CP6-PP6=AC6;
40+PL1+PM1+PP1 + PL2+PM2+PP2 + PL3+PM3+PP3 + PL4+PM4+PP4 + PL5+PM5+PP5 + PL6+PM6+PP6=AP6 +18+18+18+23+30+33;
AC6>=0;AC6<=30;
AP6>=0;AP6<=40;

/* Julho */

PL7+PL6+PL5+PL4+PL3+PL2+PL1+20>=9+9+9+12+16+17+19;
PM7+PM6+PM5+PM4+PM3+PM2+PM1+10>=5+5+5+6+8+9+10;
PP7+PP6+PP5+PP4+PP3+PP2+PP1+10>=4+4+4+5+6+7+8;
CL7+CL6+CL5+CL4+CL3+CL2+CL1+16>=PL7+PL6+PL5+PL4+PL3+PL2+PL1;
CM7+CM6+CM5+CM4+CM3+CM2+CM1+8>=PM7+PM6+PM5+PM4+PM3+PM2+PM1;
CP7+CP6+CP5+CP4+CP3+CP2+CP1+6>=PP7+PP6+PP5+PP4+PP3+PP2+PP1;
PL7+PM7+PP7<=30;
30+CL1-PL1+CM1-PM1+CP1-PP1 + CL2-PL2+CM2-PM2+CP2-PP2 + CL3-PL3+CM3-PM3+CP3-PP3 + CL4-PL4+CM4-PM4+CP4-PP4 + CL5-PL5+CM5-PM5+CP5-PP5 + CL6-PL6+CM6-PM6+CP6-PP6 + CL7-PL7+CM7-PM7+CP7-PP7=AC7;
40+PL1+PM1+PP1 + PL2+PM2+PP2 + PL3+PM3+PP3 + PL4+PM4+PP4 + PL5+PM5+PP5 + PL6+PM6+PP6 + PL7+PM7+PP7=AP7 +18+18+18+23+30+33+37;
AC7>=0;AC7<=30;
AP7>=0;AP7<=40;

/* Agosto */

PL8+PL7+PL6+PL5+PL4+PL3+PL2+PL1+20>=9+9+9+12+16+17+19+19;
PM8+PM7+PM6+PM5+PM4+PM3+PM2+PM1+10>=5+5+5+6+8+9+10+10;
PP8+PP7+PP6+PP5+PP4+PP3+PP2+PP1+10>=4+4+4+5+6+7+8+8;
CL8+CL7+CL6+CL5+CL4+CL3+CL2+CL1+16>=PL8+PL7+PL6+PL5+PL4+PL3+PL2+PL1;
CM8+CM7+CM6+CM5+CM4+CM3+CM2+CM1+8>=PM8+PM7+PM6+PM5+PM4+PM3+PM2+PM1;
CP8+CP7+CP6+CP5+CP4+CP3+CP2+CP1+6>=PP8+PP7+PP6+PP5+PP4+PP3+PP2+PP1;
PL8+PM8+PP8<=30;
30+CL1-PL1+CM1-PM1+CP1-PP1 + CL2-PL2+CM2-PM2+CP2-PP2 + CL3-PL3+CM3-PM3+CP3-PP3 + CL4-PL4+CM4-PM4+CP4-PP4 + CL5-PL5+CM5-PM5+CP5-PP5 + CL6-PL6+CM6-PM6+CP6-PP6 + CL7-PL7+CM7-PM7+CP7-PP7 + CL8-PL8+CM8-PM8+CP8-PP8=AC8;
40+PL1+PM1+PP1 + PL2+PM2+PP2 + PL3+PM3+PP3 + PL4+PM4+PP4 + PL5+PM5+PP5 + PL6+PM6+PP6 + PL7+PM7+PP7 + PL8+PM8+PP8=AP8 +18+18+18+23+30+33+37+37;
AC8>=0;AC8<=30;
AP8>=0;AP8<=40;

/* Setembro */

PL9+PL8+PL7+PL6+PL5+PL4+PL3+PL2+PL1+20>=9+9+9+12+16+17+19+19+16;
PM9+PM8+PM7+PM6+PM5+PM4+PM3+PM2+PM1+10>=5+5+5+6+8+9+10+10+8;
PP9+PP8+PP7+PP6+PP5+PP4+PP3+PP2+PP1+10>=4+4+4+5+6+7+8+8+6;
CL9+CL8+CL7+CL6+CL5+CL4+CL3+CL2+CL1>=PL9+PL8+PL7+PL6+PL5+PL4+PL3+PL2+PL1;
CM9+CM8+CM7+CM6+CM5+CM4+CM3+CM2+CM1+8>=PM9+PM8+PM7+PM6+PM5+PM4+PM3+PM2+PM1;
CP9+CP8+CP7+CP6+CP5+CP4+CP3+CP2+CP1+6>=PP9+PP8+PP7+PP6+PP5+PP4+PP3+PP2+PP1;
PL9+PM9+PP9<=30;
30+CL1-PL1+CM1-PM1+CP1-PP1 + CL2-PL2+CM2-PM2+CP2-PP2 + CL3-PL3+CM3-PM3+CP3-PP3 + CL4-PL4+CM4-PM4+CP4-PP4 + CL5-PL5+CM5-PM5+CP5-PP5 + CL6-PL6+CM6-PM6+CP6-PP6 + CL7-PL7+CM7-PM7+CP7-PP7 + CL8-PL8+CM8-PM8+CP8-PP8 + CL9-PL9+CM9-PM9+CP9-PP9=AC9;
40+PL1+PM1+PP1 + PL2+PM2+PP2 + PL3+PM3+PP3 + PL4+PM4+PP4 + PL5+PM5+PP5 + PL6+PM6+PP6 + PL7+PM7+PP7 + PL8+PM8+PP8 + PL9+PM9+PP9=AP9 +18+18+18+23+30+33+37+37+30;
AC9>=0;AC9<=30;
AP9>=0;AP9<=40;

/* Outubro */

PL10+PL9+PL8+PL7+PL6+PL5+PL4+PL3+PL2+PL1+20>=9+9+9+12+16+17+19+19+16+12;
PM10+PM9+PM8+PM7+PM6+PM5+PM4+PM3+PM2+PM1+10>=5+5+5+6+8+9+10+10+8+6;
PP10+PP9+PP8+PP7+PP6+PP5+PP4+PP3+PP2+PP1+10>=4+4+4+5+6+7+8+8+6+5;
CL10+CL9+CL8+CL7+CL6+CL5+CL4+CL3+CL2+CL1+16>=PL10+PL9+PL8+PL7+PL6+PL5+PL4+PL3+PL2+PL1;
CM10+CM9+CM8+CM7+CM6+CM5+CM4+CM3+CM2+CM1+8>=PM10+PM9+PM8+PM7+PM6+PM5+PM4+PM3+PM2+PM1;
CP10+CP9+CP8+CP7+CP6+CP5+CP4+CP3+CP2+CP1+6>=PP10+PP9+PP8+PP7+PP6+PP5+PP4+PP3+PP2+PP1;
PL10+PM10+PP10<=30;
30+CL1-PL1+CM1-PM1+CP1-PP1 + CL2-PL2+CM2-PM2+CP2-PP2 + CL3-PL3+CM3-PM3+CP3-PP3 + CL4-PL4+CM4-PM4+CP4-PP4 + CL5-PL5+CM5-PM5+CP5-PP5 + CL6-PL6+CM6-PM6+CP6-PP6 + CL7-PL7+CM7-PM7+CP7-PP7 + CL8-PL8+CM8-PM8+CP8-PP8 + CL9-PL9+CM9-PM9+CP9-PP9 + CL10-PL10+CM10-PM10+CP10-PP10=AC10;
40+PL1+PM1+PP1 + PL2+PM2+PP2 + PL3+PM3+PP3 + PL4+PM4+PP4 + PL5+PM5+PP5 + PL6+PM6+PP6 + PL7+PM7+PP7 + PL8+PM8+PP8 + PL9+PM9+PP9 + PL10+PM10+PP10=AP10 +18+18+18+23+30+33+37+37+30+23;
AC10>=0;AC10<=30;
AP10>=0;AP10<=40;

/* Novembro */

PL11+PL10+PL9+PL8+PL7+PL6+PL5+PL4+PL3+PL2+PL1+20>=9+9+9+12+16+17+19+19+16+12+10;
PM11+PM10+PM9+PM8+PM7+PM6+PM5+PM4+PM3+PM2+PM1+10>=5+5+5+6+8+9+10+10+8+6+5;
PP11+PP10+PP9+PP8+PP7+PP6+PP5+PP4+PP3+PP2+PP1+10>=4+4+4+5+6+7+8+8+6+5+4;
CL11+CL10+CL9+CL8+CL7+CL6+CL5+CL4+CL3+CL2+CL1+16>=PL11+PL10+PL9+PL8+PL7+PL6+PL5+PL4+PL3+PL2+PL1;
CM11+CM10+CM9+CM8+CM7+CM6+CM5+CM4+CM3+CM2+CM1+8>=PM11+PM10+PM9+PM8+PM7+PM6+PM5+PM4+PM3+PM2+PM1;
CP11+CP10+CP9+CP8+CP7+CP6+CP5+CP4+CP3+CP2+CP1+6>=PP11+PP10+PP9+PP8+PP7+PP6+PP5+PP4+PP3+PP2+PP1;
PL11+PM11+PP11<=30;
30+CL1-PL1+CM1-PM1+CP1-PP1 + CL2-PL2+CM2-PM2+CP2-PP2 + CL3-PL3+CM3-PM3+CP3-PP3 + CL4-PL4+CM4-PM4+CP4-PP4 + CL5-PL5+CM5-PM5+CP5-PP5 + CL6-PL6+CM6-PM6+CP6-PP6 + CL7-PL7+CM7-PM7+CP7-PP7 + CL8-PL8+CM8-PM8+CP8-PP8 + CL9-PL9+CM9-PM9+CP9-PP9 + CL10-PL10+CM10-PM10+CP10-PP10 + CL11-PL11+CM11-PM11+CP11-PP11=AC11;
40+PL1+PM1+PP1 + PL2+PM2+PP2 + PL3+PM3+PP3 + PL4+PM4+PP4 + PL5+PM5+PP5 + PL6+PM6+PP6 + PL7+PM7+PP7 + PL8+PM8+PP8 + PL9+PM9+PP9 + PL10+PM10+PP10 + PL11+PM11+PP11=AP11 +18+18+18+23+30+33+37+37+30+23+19;
AC11>=0;AC11<=30;
AP11>=0;AP11<=40;

/* Dezembro */

PL12+PL11+PL10+PL9+PL8+PL7+PL6+PL5+PL4+PL3+PL2+PL1=9+9+9+12+16+17+19+19+16+12+10+9;
PM12+PM11+PM10+PM9+PM8+PM7+PM6+PM5+PM4+PM3+PM2+PM1=5+5+5+6+8+9+10+10+8+6+5+5;
PP12+PP11+PP10+PP9+PP8+PP7+PP6+PP5+PP4+PP3+PP2+PP1=4+4+4+5+6+7+8+8+6+5+4+4;
CL12+CL11+CL10+CL9+CL8+CL7+CL6+CL5+CL4+CL3+CL2+CL1=PL12+PL11+PL10+PL9+PL8+PL7+PL6+PL5+PL4+PL3+PL2+PL1;
CM12+CM11+CM10+CM9+CM8+CM7+CM6+CM5+CM4+CM3+CM2+CM1=PM12+PM11+PM10+PM9+PM8+PM7+PM6+PM5+PM4+PM3+PM2+PM1;
CP12+CP11+CP10+CP9+CP8+CP7+CP6+CP5+CP4+CP3+CP2+CP1=PP12+PP11+PP10+PP9+PP8+PP7+PP6+PP5+PP4+PP3+PP2+PP1;
PL12+PM12+PP12<=30;
30+CL1-PL1+CM1-PM1+CP1-PP1 + CL2-PL2+CM2-PM2+CP2-PP2 + CL3-PL3+CM3-PM3+CP3-PP3 + CL4-PL4+CM4-PM4+CP4-PP4 + CL5-PL5+CM5-PM5+CP5-PP5 + CL6-PL6+CM6-PM6+CP6-PP6 + CL7-PL7+CM7-PM7+CP7-PP7 + CL8-PL8+CM8-PM8+CP8-PP8 + CL9-PL9+CM9-PM9+CP9-PP9 + CL10-PL10+CM10-PM10+CP10-PP10 + CL11-PL11+CM11-PM11+CP11-PP11 + CL12-PL12+CM12-PM12+CP12-PP12=AC12;
40+PL1+PM1+PP1 + PL2+PM2+PP2 + PL3+PM3+PP3 + PL4+PM4+PP4 + PL5+PM5+PP5 + PL6+PM6+PP6 + PL7+PM7+PP7 + PL8+PM8+PP8 + PL9+PM9+PP9 + PL10+PM10+PP10 + PL11+PM11+PP11 + PL12+PM12+PP12=AP12 +18+18+18+23+30+33+37+37+30+23+19+18;
AC12>=0;AC12<=30;
AP12>=0;AP12<=40;

/* Definir variáveis com positivas */
CL1>=0;
CM1>=0;
CP1>=0;
PL1>=0;
PM1>=0;
PP1>=0;

CL2>=0;
CM2>=0;
CP2>=0;
PL2>=0;
PM2>=0;
PP2>=0;

CL3>=0;
CM3>=0;
CP3>=0;
PL3>=0;
PM3>=0;
PP3>=0;

CL4>=0;
CM4>=0;
CP4>=0;
PL4>=0;
PM4>=0;
PP4>=0;

CL5>=0;
CM5>=0;
CP5>=0;
PL5>=0;
PM5>=0;
PP5>=0;

CL6>=0;
CM6>=0;
CP6>=0;
PL6>=0;
PM6>=0;
PP6>=0;

CL7>=0;
CM7>=0;
CP7>=0;
PL7>=0;
PM7>=0;
PP7>=0;

CL8>=0;
CM8>=0;
CP8>=0;
PL8>=0;
PM8>=0;
PP8>=0;

CL9>=0;
CM9>=0;
CP9>=0;
PL9>=0;
PM9>=0;
PP9>=0;

CL10>=0;
CM10>=0;
CP10>=0;
PL10>=0;
PM10>=0;
PP10>=0;

CL11>=0;
CM11>=0;
CP11>=0;
PL11>=0;
PM11>=0;
PP11>=0;

CL12>=0;
CM12>=0;
CP12>=0;
PL12>=0;
PM12>=0;
PP12>=0;